p cnf 62 221
-3 1 0
-3 -2 0
-1 2 3 0
-5 4 0
-5 2 0
-4 -2 5 0
-6 3 0
-6 5 0
-3 -5 6 0
8 7 0
8 -1 0
-7 1 -8 0
-8 9 0
8 9 0
10 6 0
10 -9 0
-6 9 -10 0
12 2 0
12 11 0
-2 -11 -12 0
-2 -7 -13 0
2 7 -13 0
-2 7 13 0
2 -7 13 0
-14 -12 0
-14 -13 0
12 13 14 0
17 15 0
17 -16 0
-15 16 -17 0
18 14 0
18 -17 0
-14 17 -18 0
7 19 -20 0
-7 -19 -20 0
7 -19 20 0
-7 19 20 0
21 -11 0
21 -2 0
11 2 -21 0
-20 21 -22 0
20 -21 -22 0
-20 -21 22 0
20 21 22 0
-24 -23 0
-24 -23 0
23 24 0
13 24 -25 0
-13 -24 -25 0
13 -24 25 0
-13 24 25 0
25 -3 -26 0
-25 3 -26 0
25 3 26 0
-25 -3 26 0
27 -23 0
27 -4 0
23 4 -27 0
-15 3 -28 0
15 -3 -28 0
-15 -3 28 0
15 3 28 0
-29 27 0
-29 28 0
-27 -28 29 0
-30 26 0
-30 29 0
-26 -29 30 0
22 30 -31 0
-22 -30 -31 0
22 -30 31 0
-22 30 31 0
32 18 0
32 31 0
-18 -31 -32 0
-33 10 0
-33 32 0
-10 -32 33 0
-23 4 -34 0
23 -4 -34 0
-23 -4 34 0
23 4 34 0
-4 -35 0
4 -35 0
-36 -3 0
-36 35 0
3 -35 36 0
37 34 0
37 36 0
-34 -36 -37 0
-38 -8 -39 0
38 8 -39 0
-38 8 39 0
38 -8 39 0
40 -37 0
40 39 0
37 -39 -40 0
41 -12 0
41 -3 0
12 3 -41 0
11 28 -42 0
-11 -28 -42 0
11 -28 42 0
-11 28 42 0
43 42 0
43 -8 0
-42 8 -43 0
-44 19 0
-44 43 0
-19 -43 44 0
45 41 0
45 -44 0
-41 44 -45 0
-46 -40 0
-46 -45 0
40 45 46 0
47 33 0
47 46 0
-33 -46 -47 0
-15 -35 -48 0
15 35 -48 0
-15 35 48 0
15 -35 48 0
-5 20 -49 0
5 -20 -49 0
-5 -20 49 0
5 20 49 0
50 21 0
50 11 0
-21 -11 -50 0
50 -51 0
-50 -51 0
-34 -51 -52 0
34 51 -52 0
-34 51 52 0
34 -51 52 0
43 -52 -53 0
-43 52 -53 0
43 52 53 0
-43 -52 53 0
-54 -49 0
-54 53 0
49 -53 54 0
55 -8 0
55 44 0
8 -44 -55 0
-56 -4 0
-56 39 0
4 -39 56 0
-57 -55 0
-57 56 0
55 -56 57 0
58 -8 0
58 4 0
8 -4 -58 0
59 -57 0
59 -58 0
57 58 -59 0
54 -59 -60 0
-54 59 -60 0
54 59 60 0
-54 -59 60 0
61 48 0
61 -60 0
-48 60 -61 0
-47 61 -62 0
47 -61 -62 0
-47 -61 62 0
47 61 62 0
30 54 59 46 24 0
-44 -14 -28 -57 1 0
-25 -55 -56 10 0
-51 52 6 -62 -29 -24 0
-13 -21 24 9 0
24 57 15 -47 0
38 -5 -61 56 14 -22 0
6 13 62 0
-5 -53 -4 0
-16 -3 -15 14 18 0
-59 17 -36 -14 8 0
21 58 -5 -18 -57 0
-21 9 0
-39 57 59 -37 -54 0
-46 -45 0
31 49 -43 0
43 -56 23 0
34 56 -37 0
23 9 -16 -3 29 0
-48 38 0
49 -28 57 41 -15 0
30 -10 0
53 -7 0
-60 58 -7 0
53 34 0
33 -19 58 -31 -22 18 0
58 52 10 -5 -62 0
-25 -18 11 27 51 14 0
41 -54 24 9 0
16 18 9 -39 0
-51 -21 -58 30 -55 0
-17 39 48 16 62 -2 0
11 47 0
25 -58 -38 -62 0
25 -62 -49 -59 -31 0
20 47 0
-25 51 52 -6 -59 34 0
-40 -33 -24 54 -53 42 0
-46 3 -7 -55 -31 53 0
1 32 -59 -33 -4 14 0
59 -56 23 -47 -35 0
-2 -4 0
-2 -6 26 28 -21 0
-42 -34 -62 -58 7 0
-36 7 -53 49 0
-29 -20 -35 0
-27 -7 24 -35 -5 0
29 18 44 8 14 26 0
-5 -57 -55 42 -38 0
-5 29 61 23 0
1 7 26 -24 49 0
62 0
